NAME : LPS-n30-m343
COMMENT : (Lartu-Peter-Santi Plot, instance 11143 out of 39200. 30 customers.)
TYPE : CVRP
DIMENSION : 30
EDGE_WEIGHT_TYPE : EUC_2D
CAPACITY : 85
NODE_COORD_SECTION
 1 19 81
 2 74 99
 3 96 5
 4 13 0
 5 21 77
 6 96 22
 7 2 45
 8 95 2
 9 42 23
 10 90 80
 11 35 12
 12 29 99
 13 10 86
 14 12 91
 15 62 4
 16 70 37
 17 11 27
 18 8 47
 19 54 50
 20 4 47
 21 78 19
 22 77 58
 23 17 99
 24 9 91
 25 59 9
 26 63 95
 27 32 3
 28 37 74
 29 5 30
 30 18 35
DEMAND_SECTION
1 0
2 62
3 50
4 19
5 53
6 83
7 74
8 22
9 7
10 26
11 61
12 61
13 28
14 31
15 7
16 71
17 29
18 80
19 33
20 16
21 42
22 66
23 27
24 1
25 30
26 47
27 78
28 74
29 42
30 73
DEPOT_SECTION
 1
 -1
EOF
